18 20
7 2 1
2 8 1
9 3 1
5 9 1
8 2 1
10 10 1
8 6 1
9 6 1
7 8 1
6 5 1
6 1 1
9 7 2
10 3 2
7 6 1
7 3 1
10 5 1
5 3 1
1 10 1
10 10 
10 10 
10 10 
10 10 
10 10 
10 10 
10 10 
10 10 
10 10 
10 10 
10 10 
10 10 
10 10 
10 10 
10 10 
10 10 
10 10 
10 10 
10 10 
10 10 
